120
150
24
24
49
53
78
34
75
38
51
47
57
83
85
82
85
94
96
89
56
72
94
56
60
67
54
46
24
41
36
77
89
97
53
29
29
24
82
98
52
79
93
57
34
38
47
61
41
93
70
29
97
53
34
47
57
80
54
29
96
88
88
33
51
56
60
78
24
94
88
72
34
75
57
77
56
87
42
34
97
85
89
53
94
75
78
98
83
88
85
52
39
61
80
56
29
21
93
75
95
89
72
97
54
53
98
97
53
75
57
52
62
98
51
98
52
61
67
65
65
69
